TIP.Original.Linear/isaplanner_prop_09.smt2
(set-logic HORN)
(declare-datatypes ((Nat_49 0)) (((Z_141 ) (S_49 (projS_46 Nat_49)))))
(declare-fun diseqNat_49 (Nat_49 Nat_49) Bool)
(declare-fun projS_47 (Nat_49 Nat_49) Bool)
(declare-fun isZ_49 (Nat_49) Bool)
(declare-fun isS_49 (Nat_49) Bool)
(assert (forall ((x_1466 Nat_49))
	(projS_47 x_1466 (S_49 x_1466))))
(assert (isZ_49 Z_141))
(assert (forall ((x_1468 Nat_49))
	(isS_49 (S_49 x_1468))))
(assert (forall ((x_1469 Nat_49))
	(diseqNat_49 Z_141 (S_49 x_1469))))
(assert (forall ((x_1470 Nat_49))
	(diseqNat_49 (S_49 x_1470) Z_141)))
(assert (forall ((x_1471 Nat_49) (x_1472 Nat_49))
	(=> (diseqNat_49 x_1471 x_1472)
	    (diseqNat_49 (S_49 x_1471) (S_49 x_1472)))))
(declare-fun x_1448 (Nat_49 Nat_49 Nat_49) Bool)
(assert (forall ((x_1453 Nat_49) (x_1450 Nat_49) (z_142 Nat_49))
	(=> (x_1448 x_1453 z_142 x_1450)
	    (x_1448 x_1453 (S_49 z_142) (S_49 x_1450)))))
(assert (forall ((z_142 Nat_49))
	(x_1448 (S_49 z_142) (S_49 z_142) Z_141)))
(assert (forall ((y_112 Nat_49))
	(x_1448 Z_141 Z_141 y_112)))
(declare-fun x_1451 (Nat_49 Nat_49 Nat_49) Bool)
(assert (forall ((x_1458 Nat_49) (z_143 Nat_49) (y_113 Nat_49))
	(=> (x_1451 x_1458 z_143 y_113)
	    (x_1451 (S_49 x_1458) (S_49 z_143) y_113))))
(assert (forall ((x_1459 Nat_49))
	(x_1451 x_1459 Z_141 x_1459)))
(assert (forall ((x_1460 Nat_49) (x_1461 Nat_49) (x_1462 Nat_49) (x_1463 Nat_49) (i_1 Nat_49) (j_0 Nat_49) (k_0 Nat_49))
	(=>	(and true
			(diseqNat_49 x_1461 x_1463)
			(x_1448 x_1460 i_1 j_0)
			(x_1448 x_1461 x_1460 k_0)
			(x_1451 x_1462 j_0 k_0)
			(x_1448 x_1463 i_1 x_1462))
		false)))
(check-sat)
